(set-info :smt-lib-version 2.6)
(set-logic QF_UFLRA)
(set-info :source |
MathSat group

|)
(set-info :category "random")
(set-info :status sat)
(declare-fun x0 () Real)
(declare-fun x1 () Real)
(declare-fun x2 () Real)
(declare-fun x3 () Real)
(declare-fun x4 () Real)
(declare-fun x5 () Real)
(declare-fun x6 () Real)
(declare-fun x7 () Real)
(declare-fun x8 () Real)
(declare-fun x9 () Real)
(declare-fun x10 () Real)
(declare-fun x11 () Real)
(declare-fun x12 () Real)
(declare-fun x13 () Real)
(declare-fun x14 () Real)
(declare-fun x15 () Real)
(declare-fun x16 () Real)
(declare-fun x17 () Real)
(declare-fun x18 () Real)
(declare-fun x19 () Real)
(declare-fun x20 () Real)
(declare-fun x21 () Real)
(declare-fun x22 () Real)
(declare-fun x23 () Real)
(declare-fun x24 () Real)
(declare-fun x25 () Real)
(declare-fun x26 () Real)
(declare-fun x27 () Real)
(declare-fun x28 () Real)
(declare-fun x29 () Real)
(declare-fun x30 () Real)
(declare-fun x31 () Real)
(declare-fun x32 () Real)
(declare-fun x33 () Real)
(declare-fun x34 () Real)
(declare-fun x35 () Real)
(declare-fun x36 () Real)
(declare-fun x37 () Real)
(declare-fun x38 () Real)
(declare-fun x39 () Real)
(declare-fun f0_1 (Real) Real)
(declare-fun f0_2 (Real Real) Real)
(declare-fun f0_3 (Real Real Real) Real)
(declare-fun f0_4 (Real Real Real Real) Real)
(declare-fun P0 () Bool)
(declare-fun P1 () Bool)
(declare-fun P2 () Bool)
(declare-fun P3 () Bool)
(declare-fun P4 () Bool)
(declare-fun P5 () Bool)
(declare-fun P6 () Bool)
(declare-fun P7 () Bool)
(declare-fun P8 () Bool)
(declare-fun P9 () Bool)
(declare-fun P10 () Bool)
(declare-fun P11 () Bool)
(declare-fun P12 () Bool)
(declare-fun P13 () Bool)
(declare-fun P14 () Bool)
(declare-fun P15 () Bool)
(declare-fun P16 () Bool)
(declare-fun P17 () Bool)
(declare-fun P18 () Bool)
(declare-fun P19 () Bool)
(declare-fun P20 () Bool)
(declare-fun P21 () Bool)
(declare-fun P22 () Bool)
(declare-fun P23 () Bool)
(declare-fun P24 () Bool)
(declare-fun P25 () Bool)
(declare-fun P26 () Bool)
(declare-fun P27 () Bool)
(declare-fun P28 () Bool)
(declare-fun P29 () Bool)
(declare-fun P30 () Bool)
(declare-fun P31 () Bool)
(declare-fun P32 () Bool)
(declare-fun P33 () Bool)
(declare-fun P34 () Bool)
(declare-fun P35 () Bool)
(declare-fun P36 () Bool)
(declare-fun P37 () Bool)
(declare-fun P38 () Bool)
(declare-fun P39 () Bool)
(assert (let ((?v_53 (< (+ (- (* 46 x20) (* 14 x10)) (* 43 x25)) 41)) (?v_142 (<= (- (+ (* 32 x21) (* 44 x32)) (* 46 x29)) 39)) (?v_182 (<= (+ (- (* 5 x22) (* 39 x20)) (* 51 x10)) 8)) (?v_143 (< (+ (- (* 29 x7) (* 25 x3)) (* 42 x17)) 37)) (?v_124 (distinct (- (- (* 15 x22) (* 7 x34)) (* 10 x30)) 12)) (?v_5 (* 27 x18)) (?v_38 (< (- (- (* 13 x3) (* 42 x1)) (* 23 x8)) 6)) (?v_152 (= x3 x38)) (?v_0 (f0_1 x29))) (let ((?v_55 (= ?v_0 (f0_2 x9 x6))) (?v_78 (= (f0_1 x5) x36)) (?v_101 (= (f0_1 x25) (f0_1 x4))) (?v_36 (= (f0_2 x5 x1) (f0_2 x6 x2))) (?v_2 (= x14 (f0_1 x12))) (?v_138 (= x31 x22)) (?v_136 (distinct (f0_1 x15) (f0_1 x21))) (?v_35 (f0_1 x13))) (let ((?v_128 (= ?v_35 x32)) (?v_125 (= x15 (f0_1 x6))) (?v_26 (distinct (f0_2 x33 x31) (f0_1 x17))) (?v_57 (= x30 (f0_1 x16))) (?v_69 (f0_1 x39))) (let ((?v_66 (distinct ?v_69 x13)) (?v_105 (distinct (f0_2 x37 x4) (f0_1 x3))) (?v_163 (= (f0_2 x13 x36) (f0_2 x16 x6))) (?v_84 (distinct (f0_2 x14 x13) (f0_2 x35 x10))) (?v_37 (= (f0_2 x10 x21) x35)) (?v_40 (distinct (f0_2 x22 x23) (f0_1 x10))) (?v_81 (= x20 (f0_2 x19 x9))) (?v_8 (= (f0_2 x24 x36) (f0_2 x29 x38))) (?v_99 (= x35 x25)) (?v_85 (f0_1 x26))) (let ((?v_203 (distinct ?v_85 (f0_1 x22))) (?v_60 (= (f0_2 x29 x14) x13)) (?v_13 (= x17 (f0_1 x23))) (?v_126 (distinct x18 x3)) (?v_80 (distinct x20 x22)) (?v_161 (= x24 (f0_2 x6 x34))) (?v_104 (= x20 (f0_2 x0 x1))) (?v_73 (distinct (f0_1 x33) (f0_2 x24 x30))) (?v_120 (distinct x5 (f0_1 x9))) (?v_109 (= x11 ?v_85)) (?v_39 (f0_2 x17 x34))) (let ((?v_111 (= (f0_2 x38 x13) ?v_39)) (?v_202 (= (f0_2 x17 x28) x29)) (?v_17 (= ?v_35 (f0_2 x30 x37))) (?v_129 (= (f0_1 x34) ?v_39)) (?v_115 (= (f0_2 x26 x34) (f0_2 x39 x38))) (?v_103 (= x34 (f0_2 x38 x16))) (?v_22 (= (f0_1 x30) (f0_2 x31 x3))) (?v_21 (= ?v_0 x11)) (?v_52 (not P35)) (?v_184 (not P6)) (?v_11 (not ?v_55)) (?v_87 (not P31)) (?v_28 (not ?v_124)) (?v_61 (not ?v_152)) (?v_23 (not P37)) (?v_153 (not P0))) (let ((?v_45 (not ?v_21)) (?v_93 (not P4)) (?v_114 (not ?v_126)) (?v_9 (not ?v_2)) (?v_12 (not P14)) (?v_121 (not ?v_103)) (?v_32 (not ?v_143)) (?v_65 (not P19)) (?v_89 (not P21)) (?v_47 (not P10)) (?v_178 (not P28)) (?v_33 (not ?v_202)) (?v_50 (not ?v_13)) (?v_20 (not ?v_111)) (?v_200 (not P17)) (?v_75 (not ?v_80)) (?v_188 (not ?v_57)) (?v_132 (not ?v_17)) (?v_86 (not P32)) (?v_72 (not P25)) (?v_134 (not P9)) (?v_49 (not ?v_128)) (?v_92 (not ?v_81)) (?v_44 (not P27)) (?v_64 (not P38)) (?v_108 (not ?v_38)) (?v_133 (not ?v_129)) (?v_166 (not P5)) (?v_98 (not ?v_125)) (?v_68 (not ?v_142)) (?v_76 (not P23)) (?v_71 (not ?v_53)) (?v_148 (not ?v_26)) (?v_83 (not P1)) (?v_100 (not ?v_73)) (?v_137 (not P34)) (?v_197 (not P13)) (?v_79 (not ?v_8)) (?v_117 (not ?v_37)) (?v_122 (not ?v_60)) (?v_151 (not ?v_66)) (?v_157 (not P7)) (?v_106 (not (= (f0_1 x32) ?v_69))) (?v_110 (not P36)) (?v_146 (not P39)) (?v_112 (not ?v_78)) (?v_113 (not ?v_84)) (?v_172 (not ?v_203)) (?v_131 (not P22)) (?v_160 (not P33)) (?v_95 (not P30)) (?v_149 (not P26)) (?v_155 (not P3)) (?v_130 (not P2)) (?v_175 (not ?v_163)) (?v_116 (not ?v_104)) (?v_145 (not ?v_182)) (?v_123 (not P18)) (?v_165 (not P29)) (?v_118 (not ?v_115)) (?v_193 (not ?v_105)) (?v_141 (not ?v_120)) (?v_176 (not ?v_101)) (?v_154 (not P11)) (?v_189 (not P15)) (?v_181 (not ?v_161)) (?v_173 (not ?v_138)) (?v_191 (not P8)) (?v_162 (not P20)) (?v_177 (not P12)) (?v_186 (not P16)) (?v_187 (not ?v_99)) (?v_195 (not ?v_22)) (?v_179 (not ?v_36)) (?v_194 (not ?v_136)) (?v_192 (not ?v_109)) (?v_196 (not P24)) (?v_4 (= (- (+ (* 18 x22) (* 55 x35)) 0) 53)) (?v_67 (<= (+ (* 47 x26) (* 26 x7) (* 15 x23)) 36))) (let ((?v_170 (not ?v_67)) (?v_174 (distinct (- (- (* 44 x15) (* 33 x39)) 0) 3))) (let ((?v_107 (not ?v_174)) (?v_167 (< (+ (* 26 x15) (* 56 x12) (* 9 x6)) 35))) (let ((?v_198 (not ?v_167)) (?v_201 (not ?v_4)) (?v_48 (= (- (+ (* 10 x38) (* 46 x16)) (* 24 x8)) (- 26))) (?v_14 (<= (- (* (- 43) x23) (* 31 x39)) (- 29)))) (let ((?v_171 (not ?v_14)) (?v_1 (<= (+ (* 5 x31) (* 26 x28) (* 38 x32)) (- 25))) (?v_10 (< (- (+ (* (- 28) x32) (* 24 x28)) (* 33 x21)) (- 18))) (?v_34 (distinct (+ (- (* 53 x38) (* 9 x18)) (* 36 x13)) (- 55))) (?v_180 (= (- (+ (* 7 x12) (* 31 x22)) (* 27 x9)) (- 20)))) (let ((?v_25 (not ?v_180)) (?v_15 (< (+ (- (* (- 50) x7) (* 45 x6)) (* 29 x30)) (- 40)))) (let ((?v_6 (not ?v_15)) (?v_30 (distinct (- (+ (* (- 25) x14) (* 19 x3)) (* 55 x8)) 57))) (let ((?v_56 (not ?v_30)) (?v_24 (= (+ (- (* (- 54) x22) (* 54 x12)) (* 8 x23)) (- 36))) (?v_127 (<= (+ (* (- 35) x8) (* 54 x18) (* 24 x30)) (- 14)))) (let ((?v_58 (not ?v_127)) (?v_16 (<= (- (- (* (- 51) x26) ?v_5) (* 50 x37)) (- 26))) (?v_3 (< (- (+ (* 24 x18) (* 5 x13)) (* 2 x22)) (- 39))) (?v_46 (distinct (- (- (* (- 9) x20) (* 27 x37)) (* 17 x19)) (- 55)))) (let ((?v_140 (not ?v_46)) (?v_41 (<= (- (* (- 25) x29) (* 15 x14)) 35))) (let ((?v_94 (not ?v_41)) (?v_7 (<= (+ (- (* (- 25) x12) (* 13 x24)) (* 50 x9)) (- 29))) (?v_168 (<= (+ (* (- 6) x21) (* 44 x24) (* 6 x9)) 53))) (let ((?v_139 (not ?v_168)) (?v_150 (< (- (+ (* (- 36) x10) ?v_5) (* 9 x35)) 16))) (let ((?v_77 (not ?v_150)) (?v_43 (<= (+ (- (* (- 15) x9) (* 35 x5)) (* 50 x3)) (- 52))) (?v_62 (= (+ (* (- 7) x10) (* 19 x6) (* 55 x20)) (- 25)))) (let ((?v_144 (not ?v_62)) (?v_19 (= (- (- (* (- 13) x8) (* 43 x3)) (* 32 x28)) 14))) (let ((?v_31 (not ?v_19)) (?v_29 (not ?v_3)) (?v_18 (< (+ (* 42 x15) (* 47 x32) (* 37 x21)) (- 50)))) (let ((?v_27 (not ?v_18)) (?v_59 (not ?v_24)) (?v_147 (not ?v_16)) (?v_90 (not ?v_1)) (?v_42 (< (+ (- (* (- 23) x17) (* 16 x39)) (* 44 x25)) 30)) (?v_159 (not ?v_7)) (?v_70 (<= (- (+ (* (- 5) x27) (* 54 x6)) (* 24 x34)) (- 11)))) (let ((?v_102 (not ?v_70)) (?v_82 (<= (- (- (* 23 x30) (* 23 x18)) (* 15 x17)) (- 12)))) (let ((?v_51 (not ?v_82)) (?v_88 (<= (+ (- (* 38 x11) (* 29 x14)) (* 12 x6)) (- 1)))) (let ((?v_199 (not ?v_88)) (?v_183 (or ?v_43 ?v_44)) (?v_97 (< (+ (- (* (- 15) x33) (* 14 x22)) (* 45 x4)) 17))) (let ((?v_54 (not ?v_97)) (?v_119 (not ?v_48)) (?v_63 (< (+ (* (- 25) x26) (* 9 x31) (* 24 x7)) (- 15))) (?v_74 (< (- (- (* 46 x7) (* 25 x37)) (* 11 x37)) (- 12)))) (let ((?v_135 (not ?v_74)) (?v_91 (not ?v_63)) (?v_96 (not ?v_34)) (?v_156 (not ?v_10)) (?v_164 (not ?v_42)) (?v_158 (<= (+ (* 5 x19) (* 50 x39) (* 11 x12)) (- 47))) (?v_169 (distinct (- (+ (* (- 18) x18) (* 18 x36)) (* 30 x2)) 27))) (let ((?v_190 (not ?v_158)) (?v_185 (not ?v_169)) (?v_204 (not ?v_43))) (and (and (and (and (and (and (and (and (and (and (and (and (and (and (and (and (and (and (and (and (and (and (and (and (and (and (and (and (and (and (and (and (and (and (and (and (and (and (and (and (and (and (and (and (and (and (and (and (and (and (and (and (and (and (and (and (and (and (and (and (and (and (and (and (and (and (and (and (and (and (and (and (and (and (and (and (and (and (and (and (and (and (and (and (and (and (and (and (and (and (and (and (and (and (and (and (and (and (and (and (and (and (and (and (and (and (and (and (and (and (and (and (and (and (and (and (and (and (and (and (and (and (and (and (and (and (and (and (and (and (and (and (and (and (and (and (and (and (and (and (and (and (and (and (and (and (and (and (and (and (and (and (and (and (and (and (and (and (and (and (and (and (and (and (and (and (and (and (and (and (and (and (and (and (and (and (and (and (and (and (and (and (and (and (and (and (and (and (and (and (and (and (and (and (and (and (and (and (and (and (and (and (and (and (and (and (and (and (and (and (and (and (and (and (and (and (and (and (and (and (and (and (and (and (and (and (and (and (and (and (and (and (and (and (and (and (and (and (and (and (and (and (and (and (and (and (and (and (and (and (and (and (and (and (and (and (and (and (and (and (and (and (and (and (and (and (and (and (and (and (and (and (and (and (and (and (and (and (and (and (and (and (and (and (and (and (and (and (and (and (and (and (and (and (and (and (and (and (and (and (and (and (and (and (and (and (and (and (and (and (and (and (and (and (and (and (and (and (and (and (and (and (and (and (and (and (and (and (and (and (and (and (and (and (and (and (and (and (and (and (and (and (and (and (and (and (and (and (and (and (and (and (and (and (and (and (and (and (and (and (and (and (and (and (and (and (and (and (and (and (and (and (and (and (and (and (and (and (and (and (and (and (and (and (and (and (and (and (and (and (and (and (and (and (and (and (and (and (and (and (and (and (and (and (and (and (and (and (and (and (and (and (and (and (and (and (and (and (and (and (and (and (and (and (and (and (and (and (and (and (and (and (and (and (and (and (and (and (and (and (and (and (and (and (and (and (and (and (and (and (and (and (and (and (and (and (and (and (and (and (and (and (and (and (and (and (and (and (and (and (and (and (and (and (and (and (and (and (and (or (or P19 ?v_52) ?v_4) (or (or ?v_48 P9) P10)) (or (or ?v_171 ?v_22) ?v_8)) (or (or ?v_184 ?v_1) ?v_10)) (or (or ?v_11 ?v_87) ?v_34)) (or (or ?v_28 ?v_25) ?v_6)) (or (or P17 ?v_61) ?v_56)) (or (or ?v_2 ?v_23) P33)) (or (or ?v_153 ?v_24) ?v_45)) (or (or ?v_58 ?v_16) ?v_3)) (or (or P39 ?v_140) ?v_94)) (or (or ?v_93 ?v_1) ?v_114)) (or (or ?v_9 ?v_3) ?v_4)) (or (or ?v_12 ?v_7) P28)) (or (or P24 ?v_121) ?v_66)) (or (or ?v_32 ?v_139) P34)) (or (or ?v_101 ?v_65) ?v_89)) (or (or ?v_60 ?v_77) ?v_43)) (or (or ?v_47 ?v_6) ?v_178)) (or (or ?v_7 ?v_8) ?v_9)) (or (or ?v_10 ?v_11) ?v_33)) (or (or ?v_40 ?v_13) P12)) (or (or ?v_144 ?v_26) ?v_12)) (or (or ?v_10 ?v_36) ?v_50)) (or (or ?v_14 ?v_115) ?v_31)) (or (or ?v_29 ?v_27) ?v_20)) (or (or P34 ?v_15) ?v_17)) (or (or P33 P14) P21)) (or (or P4 ?v_16) ?v_17)) (or (or ?v_105 ?v_18) ?v_19)) (or (or ?v_20 ?v_170) P23)) (or (or ?v_21 ?v_200) ?v_75)) (or (or ?v_99 ?v_22) ?v_23)) (or (or ?v_59 P3) ?v_147)) (or (or ?v_90 P38) ?v_25)) (or (or ?v_26 ?v_27) P6)) (or (or P12 ?v_38) ?v_42)) (or (or ?v_28 ?v_188) ?v_29)) (or (or ?v_159 P32) ?v_30)) (or (or ?v_102 ?v_132) P27)) (or (or ?v_84 ?v_86) ?v_72)) (or (or ?v_134 ?v_31) ?v_32)) (or (or ?v_33 ?v_34) ?v_28)) (or (or ?v_49 ?v_36) ?v_37)) (or (or ?v_92 P30) ?v_44)) (or (or ?v_78 ?v_37) ?v_64)) (or (or ?v_108 ?v_133) ?v_17)) (or (or ?v_166 ?v_40) ?v_41)) (or (or ?v_51 ?v_199) ?v_42)) (or ?v_183 P30)) (or (or ?v_98 ?v_45) ?v_68)) (or (or ?v_46 ?v_54) ?v_76)) (or (or P4 ?v_53) ?v_47)) (or (or ?v_119 P26) ?v_16)) (or (or ?v_136 ?v_49) ?v_50)) (or (or ?v_51 ?v_52) ?v_71)) (or (or ?v_54 ?v_15) ?v_63)) (or (or ?v_25 ?v_55) P23)) (or (or ?v_148 ?v_56) ?v_83)) (or (or ?v_135 P10) ?v_28)) (or (or P29 ?v_57) P23)) (or (or ?v_100 ?v_58) ?v_137)) (or (or ?v_31 ?v_32) ?v_197)) (or (or ?v_59 ?v_60) ?v_61)) (or (or ?v_79 ?v_117) ?v_30)) (or (or ?v_122 ?v_62) ?v_91)) (or (or ?v_64 ?v_65) ?v_151)) (or (or P34 P37) ?v_67)) (or (or ?v_65 ?v_109) ?v_104)) (or (or P37 ?v_157) P14)) (or (or ?v_68 ?v_18) ?v_106)) (or (or ?v_70 ?v_71) ?v_72)) (or (or ?v_107 P11) ?v_61)) (or (or ?v_110 P25) ?v_73)) (or (or P25 ?v_3) ?v_74)) (or (or ?v_146 ?v_58) ?v_75)) (or (or ?v_76 ?v_74) ?v_77)) (or (or ?v_112 ?v_51) ?v_79)) (or (or P0 ?v_2) ?v_80)) (or (or ?v_81 P25) ?v_167)) (or (or P22 ?v_82) ?v_43)) (or (or ?v_78 ?v_76) ?v_83)) (or (or P17 ?v_2) ?v_113)) (or (or ?v_138 ?v_24) ?v_56)) (or (or ?v_79 ?v_13) P32)) (or (or ?v_172 P24) P9)) (or (or ?v_131 ?v_2) P23)) (or (or ?v_70 ?v_29) ?v_47)) (or (or ?v_7 ?v_11) ?v_86)) (or (or ?v_160 P29) ?v_31)) (or (or ?v_87 ?v_88) ?v_89)) (or (or ?v_90 P1) ?v_61)) (or (or ?v_91 P34) ?v_84)) (or (or ?v_95 ?v_36) ?v_92)) (or (or ?v_36 ?v_93) ?v_19)) (or (or ?v_96 P34) P9)) (or (or ?v_94 ?v_11) ?v_95)) (or (or P10 ?v_96) ?v_156)) (or (or ?v_97 ?v_98) ?v_36)) (or (or ?v_55 ?v_38) P13)) (or (or P1 ?v_46) ?v_99)) (or (or ?v_100 ?v_64) P35)) (or (or ?v_149 P30) ?v_155)) (or (or ?v_82 ?v_130) ?v_101)) (or (or ?v_71 ?v_102) ?v_103)) (or (or ?v_42 P35) ?v_8)) (or (or ?v_175 ?v_45) P22)) (or (or ?v_23 ?v_67) ?v_6)) (or (or ?v_67 P13) ?v_76)) (or (or P34 ?v_116) ?v_145)) (or (or ?v_48 ?v_32) P14)) (or (or ?v_30 ?v_105) ?v_106)) (or (or ?v_2 ?v_123) P39)) (or (or P3 ?v_59) ?v_25)) (or (or ?v_107 ?v_108) ?v_60)) (or (or ?v_21 ?v_109) ?v_58)) (or (or P31 ?v_110) ?v_2)) (or (or ?v_96 ?v_66) ?v_9)) (or (or ?v_72 ?v_79) ?v_111)) (or (or ?v_165 ?v_112) ?v_82)) (or (or P17 ?v_113) P29)) (or (or ?v_81 ?v_56) ?v_114)) (or (or ?v_82 ?v_120) ?v_118)) (or (or ?v_116 ?v_117) ?v_118)) (or (or ?v_74 ?v_94) ?v_26)) (or (or ?v_193 ?v_119) P24)) (or (or ?v_141 P8) ?v_111)) (or (or ?v_3 ?v_96) ?v_90)) (or (or ?v_30 ?v_121) ?v_122)) (or (or ?v_28 ?v_88) ?v_34)) (or (or ?v_1 ?v_68) P16)) (or (or ?v_19 ?v_9) ?v_123)) (or (or P21 ?v_124) P0)) (or (or ?v_52 ?v_82) ?v_104)) (or (or ?v_125 ?v_3) ?v_102)) (or (or ?v_126 P12) ?v_120)) (or (or ?v_4 ?v_127) ?v_53)) (or (or ?v_128 ?v_122) ?v_65)) (or (or ?v_129 ?v_176) P22)) (or (or ?v_154 ?v_189) ?v_112)) (or (or ?v_33 P17) ?v_121)) (or (or ?v_43 ?v_75) P15)) (or (or ?v_18 ?v_27) ?v_55)) (or (or ?v_130 ?v_62) P23)) (or (or ?v_131 ?v_17) ?v_109)) (or (or P37 ?v_132) ?v_75)) (or (or ?v_101 ?v_2) P0)) (or (or ?v_77 ?v_128) ?v_65)) (or (or P3 ?v_99) ?v_60)) (or (or ?v_80 ?v_133) ?v_54)) (or (or ?v_164 ?v_28) ?v_6)) (or (or ?v_134 ?v_30) ?v_135)) (or (or ?v_48 ?v_37) ?v_136)) (or (or P28 ?v_86) ?v_40)) (or (or ?v_22 P23) ?v_29)) (or (or ?v_64 ?v_8) ?v_96)) (or (or ?v_137 P32) ?v_15)) (or (or ?v_136 ?v_25) ?v_181)) (or (or ?v_31 P21) ?v_105)) (or (or P17 ?v_12) ?v_16)) (or (or ?v_135 ?v_173) ?v_139)) (or (or ?v_58 ?v_83) ?v_140)) (or (or ?v_51 ?v_141) ?v_142)) (or (or ?v_99 ?v_143) ?v_109)) (or (or P18 P36) ?v_62)) (or (or ?v_68 ?v_7) ?v_50)) (or (or ?v_8 P12) ?v_23)) (or (or ?v_10 ?v_144) ?v_131)) (or (or ?v_65 P37) ?v_145)) (or (or ?v_41 ?v_134) P4)) (or (or ?v_34 ?v_146) P35)) (or (or ?v_124 P34) ?v_66)) (or (or ?v_147 P3) ?v_53)) (or (or ?v_102 ?v_97) P31)) (or (or ?v_81 ?v_51) ?v_158)) (or (or ?v_116 ?v_148) ?v_73)) (or (or ?v_101 ?v_82) ?v_169)) (or (or P5 ?v_149) P37)) (or (or ?v_150 ?v_151) ?v_23)) (or (or ?v_79 ?v_87) ?v_120)) (or (or P10 ?v_151) ?v_120)) (or (or ?v_191 P6) ?v_152)) (or (or ?v_129 ?v_129) ?v_144)) (or (or ?v_162 ?v_11) ?v_100)) (or (or ?v_116 ?v_129) P34)) (or (or ?v_81 ?v_36) ?v_34)) (or (or ?v_88 ?v_81) ?v_93)) (or (or P15 ?v_141) ?v_153)) (or (or P9 ?v_34) ?v_154)) (or (or ?v_155 ?v_156) ?v_53)) (or (or ?v_46 ?v_88) ?v_29)) (or (or ?v_127 ?v_157) P3)) (or (or ?v_94 ?v_190) ?v_159)) (or (or ?v_177 ?v_101) ?v_14)) (or (or ?v_135 ?v_160) P12)) (or (or ?v_56 ?v_161) ?v_61)) (or (or ?v_18 ?v_6) ?v_161)) (or (or ?v_38 ?v_47) ?v_158)) (or (or ?v_48 ?v_162) ?v_163)) (or (or P16 ?v_129) ?v_148)) (or (or P25 P29) ?v_141)) (or (or P22 ?v_137) ?v_56)) (or (or ?v_145 ?v_80) ?v_51)) (or (or ?v_20 ?v_164) P5)) (or (or ?v_74 ?v_145) ?v_142)) (or (or ?v_139 ?v_97) ?v_121)) (or (or ?v_162 ?v_104) ?v_28)) (or (or ?v_64 ?v_64) ?v_71)) (or (or ?v_48 ?v_115) ?v_42)) (or (or P23 P15) ?v_77)) (or (or P25 P21) ?v_163)) (or (or ?v_82 ?v_149) ?v_116)) (or (or ?v_3 P25) P2)) (or (or P10 ?v_26) ?v_146)) (or (or ?v_133 ?v_4) ?v_56)) (or (or ?v_165 P16) ?v_95)) (or (or P14 ?v_108) ?v_63)) (or (or ?v_64 P34) ?v_25)) (or (or P6 ?v_50) ?v_166)) (or (or ?v_87 P28) P23)) (or (or P30 ?v_87) ?v_71)) (or (or ?v_117 ?v_93) ?v_186)) (or (or ?v_2 P18) P19)) (or (or ?v_41 ?v_187) P32)) (or (or P10 ?v_130) ?v_33)) (or (or ?v_48 P30) P27)) (or (or ?v_58 ?v_119) ?v_195)) (or (or ?v_155 ?v_36) ?v_43)) (or (or ?v_10 ?v_166) ?v_81)) (or (or P12 ?v_116) ?v_198)) (or (or ?v_70 ?v_76) ?v_168)) (or (or ?v_53 ?v_149) ?v_115)) (or (or ?v_7 ?v_185) P4)) (or (or ?v_102 ?v_167) ?v_140)) (or (or ?v_170 ?v_171) ?v_102)) (or (or ?v_172 ?v_170) ?v_32)) (or (or ?v_27 ?v_75) P14)) (or (or ?v_173 ?v_120) ?v_57)) (or (or P39 ?v_56) ?v_172)) (or (or ?v_130 P8) P26)) (or (or ?v_174 P18) ?v_61)) (or (or ?v_18 ?v_173) ?v_179)) (or (or ?v_175 ?v_7) ?v_80)) (or (or ?v_118 P32) ?v_148)) (or (or ?v_141 ?v_71) ?v_32)) (or (or ?v_127 P33) ?v_41)) (or (or ?v_105 ?v_10) ?v_42)) (or (or ?v_176 P21) ?v_194)) (or (or ?v_128 ?v_101) ?v_59)) (or (or ?v_169 ?v_87) P0)) (or (or ?v_49 ?v_10) ?v_82)) (or (or ?v_177 ?v_82) ?v_42)) (or (or ?v_125 ?v_139) ?v_48)) (or (or ?v_178 P2) ?v_101)) (or (or ?v_107 ?v_149) ?v_41)) (or (or ?v_55 ?v_50) P34)) (or (or ?v_53 ?v_179) ?v_56)) (or (or ?v_121 ?v_99) ?v_68)) (or (or ?v_158 ?v_46) ?v_27)) (or (or ?v_118 P9) ?v_105)) (or (or ?v_179 ?v_178) ?v_141)) (or (or P5 ?v_157) ?v_122)) (or (or ?v_33 ?v_17) ?v_19)) (or (or ?v_29 ?v_123) P36)) (or (or ?v_157 ?v_180) ?v_34)) (or (or ?v_65 ?v_173) ?v_41)) (or (or ?v_100 ?v_111) ?v_146)) (or (or ?v_178 ?v_192) ?v_18)) (or (or ?v_140 P14) ?v_3)) (or (or ?v_78 ?v_181) ?v_7)) (or (or ?v_156 ?v_8) ?v_106)) (or (or P28 ?v_146) ?v_134)) (or (or ?v_13 ?v_126) ?v_65)) (or (or ?v_7 ?v_53) ?v_182)) (or (or ?v_106 P18) ?v_68)) (or ?v_183 ?v_184)) (or (or ?v_123 ?v_120) P24)) (or (or ?v_181 ?v_79) ?v_141)) (or (or ?v_51 ?v_45) ?v_1)) (or (or ?v_99 ?v_163) ?v_57)) (or (or P21 ?v_93) ?v_149)) (or (or ?v_9 ?v_36) ?v_54)) (or (or P35 ?v_65) ?v_176)) (or (or ?v_88 ?v_135) ?v_42)) (or (or P15 ?v_185) ?v_97)) (or (or ?v_161 ?v_186) P33)) (or (or ?v_75 P33) ?v_48)) (or (or ?v_121 P37) ?v_156)) (or (or P13 ?v_103) ?v_67)) (or (or ?v_187 P30) ?v_52)) (or (or P37 P23) ?v_188)) (or (or ?v_129 ?v_126) ?v_189)) (or (or ?v_106 ?v_97) P34)) (or (or ?v_48 ?v_28) ?v_121)) (or (or P1 ?v_38) ?v_190)) (or (or ?v_191 ?v_52) ?v_91)) (or (or P3 ?v_106) ?v_171)) (or (or ?v_161 ?v_146) ?v_36)) (or (or P15 ?v_75) ?v_14)) (or (or ?v_157 ?v_53) P35)) (or (or ?v_4 ?v_192) ?v_30)) (or (or P27 ?v_100) P7)) (or (or ?v_33 ?v_196) ?v_187)) (or (or ?v_55 ?v_163) ?v_20)) (or (or ?v_41 ?v_193) ?v_140)) (or (or ?v_58 ?v_105) ?v_129)) (or (or ?v_27 ?v_194) ?v_195)) (or (or ?v_135 ?v_101) ?v_95)) (or (or ?v_189 P21) ?v_79)) (or (or ?v_97 P3) ?v_140)) (or (or ?v_196 P23) ?v_93)) (or (or ?v_197 ?v_40) ?v_174)) (or (or P22 ?v_29) P23)) (or (or P13 ?v_201) ?v_16)) (or (or ?v_95 P12) ?v_13)) (or (or ?v_119 P35) ?v_175)) (or (or ?v_158 ?v_124) ?v_101)) (or (or ?v_64 ?v_194) ?v_13)) (or (or ?v_198 P13) ?v_11)) (or (or ?v_145 ?v_120) ?v_7)) (or (or ?v_182 ?v_134) ?v_168)) (or (or ?v_140 ?v_110) ?v_81)) (or (or ?v_62 ?v_8) ?v_149)) (or (or ?v_74 ?v_50) ?v_117)) (or (or P28 P2) ?v_160)) (or (or P38 ?v_140) ?v_103)) (or (or ?v_125 ?v_171) ?v_87)) (or (or ?v_141 ?v_161) P2)) (or (or ?v_73 ?v_124) ?v_155)) (or (or ?v_147 ?v_170) ?v_29)) (or (or ?v_160 P21) ?v_8)) (or (or ?v_124 ?v_74) ?v_15)) (or (or ?v_81 P27) ?v_137)) (or (or ?v_37 ?v_25) ?v_155)) (or (or ?v_65 ?v_63) ?v_110)) (or (or ?v_168 ?v_172) ?v_163)) (or (or (not ?v_40) ?v_137) ?v_128)) (or (or ?v_119 ?v_33) P21)) (or (or P22 ?v_139) ?v_150)) (or (or P7 ?v_181) ?v_20)) (or (or ?v_1 ?v_90) P31)) (or (or P0 ?v_197) ?v_18)) (or (or ?v_161 ?v_122) P33)) (or (or ?v_173 ?v_20) ?v_199)) (or (or ?v_161 P7) P20)) (or (or ?v_83 ?v_199) ?v_186)) (or (or ?v_171 P11) ?v_20)) (or (or ?v_146 ?v_106) ?v_11)) (or (or ?v_56 ?v_180) ?v_97)) (or (or ?v_38 ?v_41) ?v_91)) (or (or ?v_17 P18) ?v_185)) (or (or ?v_139 ?v_54) ?v_141)) (or (or P19 ?v_75) P34)) (or (or ?v_30 P7) ?v_145)) (or (or P27 ?v_127) ?v_2)) (or (or ?v_137 ?v_163) ?v_72)) (or (or ?v_26 ?v_14) ?v_150)) (or (or ?v_89 ?v_179) ?v_20)) (or (or ?v_195 ?v_14) ?v_107)) (or (or P26 ?v_190) ?v_49)) (or (or ?v_184 ?v_176) P5)) (or (or P34 ?v_68) ?v_18)) (or (or ?v_179 ?v_176) P6)) (or (or ?v_200 ?v_97) ?v_42)) (or (or ?v_138 ?v_47) ?v_74)) (or (or ?v_44 ?v_27) P37)) (or (or ?v_32 ?v_49) ?v_81)) (or (or ?v_126 ?v_167) ?v_21)) (or (or ?v_21 ?v_125) ?v_64)) (or (or ?v_189 P20) P0)) (or (or ?v_140 ?v_20) ?v_72)) (or (or P37 ?v_28) ?v_174)) (or (or ?v_128 P4) ?v_155)) (or (or ?v_181 ?v_67) ?v_51)) (or (or P23 ?v_72) ?v_86)) (or (or P37 ?v_161) P2)) (or (or P16 ?v_182) ?v_8)) (or (or ?v_20 ?v_128) ?v_181)) (or (or ?v_17 P25) P10)) (or (or ?v_159 ?v_27) ?v_37)) (or (or ?v_181 ?v_122) ?v_201)) (or (or ?v_181 ?v_202) ?v_82)) (or (or ?v_118 ?v_4) ?v_19)) (or (or ?v_60 P19) ?v_77)) (or (or ?v_66 ?v_162) ?v_37)) (or (or ?v_181 ?v_43) ?v_152)) (or (or ?v_128 ?v_63) ?v_126)) (or (or ?v_91 ?v_1) ?v_182)) (or (or P17 ?v_52) ?v_115)) (or (or ?v_36 ?v_36) P2)) (or (or ?v_1 ?v_200) ?v_14)) (or (or ?v_173 ?v_101) ?v_89)) (or (or ?v_1 ?v_186) ?v_191)) (or (or ?v_204 ?v_118) ?v_48)) (or (or ?v_143 ?v_84) ?v_117)) (or (or P0 ?v_59) ?v_7)) (or (or ?v_180 ?v_141) ?v_32)) (or (or ?v_82 ?v_36) ?v_12)) (or (or P25 ?v_120) ?v_114)) (or (or ?v_175 ?v_127) ?v_67)) (or (or ?v_38 ?v_95) ?v_30)) (or (or P30 ?v_45) P14)) (or (or ?v_56 P8) ?v_108)) (or (or ?v_72 ?v_141) ?v_44)) (or (or ?v_36 ?v_44) P15)) (or (or ?v_38 ?v_43) P19)) (or (or ?v_26 P20) ?v_6)) (or (or ?v_4 ?v_9) P8)) (or (or P1 P2) P4)) (or (or P16 ?v_34) ?v_182)) (or (or ?v_124 ?v_106) ?v_203)) (or (or P21 ?v_19) ?v_162)) (or (or ?v_135 ?v_161) ?v_122)) (or (or ?v_160 ?v_15) P2)) (or (or P30 ?v_46) ?v_67)) (or (or ?v_192 ?v_132) ?v_99)) (or (or ?v_139 P35) ?v_174)) (or (or ?v_165 ?v_91) P30)) (or (or ?v_102 P38) P6)) (or (or ?v_142 ?v_75) ?v_59)) (or (or ?v_26 ?v_23) ?v_145)) (or (or P2 ?v_18) ?v_34)) (or (or ?v_129 ?v_160) ?v_118)) (or (or ?v_140 ?v_138) ?v_174)) (or (or P17 ?v_185) ?v_128)) (or (or ?v_25 ?v_45) ?v_128)) (or (or ?v_201 ?v_107) ?v_105)) (or (or ?v_46 P30) ?v_189)) (or (or ?v_145 ?v_23) ?v_101)) (or (or ?v_157 ?v_29) ?v_129)) (or (or P12 ?v_106) ?v_23)) (or (or P27 ?v_92) P32)) (or (or ?v_92 ?v_108) P22)) (or (or ?v_185 ?v_160) ?v_100)) (or (or ?v_127 ?v_151) ?v_161)) (or (or ?v_199 ?v_52) ?v_67)) (or (or ?v_59 P30) ?v_11)) (or (or ?v_47 P29) P5)) (or (or ?v_64 ?v_152) ?v_191)) (or (or ?v_146 ?v_46) ?v_82)) (or (or ?v_70 ?v_176) ?v_12)) (or (or ?v_112 ?v_44) ?v_113)) (or (or ?v_60 ?v_132) ?v_74)) (or (or ?v_81 ?v_142) ?v_99)) (or (or ?v_175 ?v_93) ?v_87)) (or (or ?v_82 ?v_49) ?v_62)) (or (or ?v_81 ?v_87) ?v_130)) (or (or ?v_15 ?v_180) ?v_41)) (or (or ?v_140 P22) ?v_93)) (or (or ?v_118 ?v_126) P4)) (or (or ?v_154 ?v_129) ?v_79)) (or (or ?v_167 ?v_110) ?v_137)) (or (or P32 ?v_37) ?v_190)) (or (or P17 ?v_92) ?v_4)) (or (or P20 ?v_76) P13)) (or (or P36 ?v_135) ?v_155)) (or (or ?v_55 ?v_149) ?v_153)) (or (or P0 ?v_91) ?v_131)) (or (or ?v_179 ?v_91) ?v_189)) (or (or ?v_72 ?v_63) ?v_177)) (or (or P23 ?v_123) P11)) (or (or ?v_172 ?v_188) P11)) (or (or ?v_196 ?v_18) ?v_45)) (or (or ?v_168 P1) ?v_106)) (or (or ?v_147 ?v_119) ?v_72)) (or (or P19 ?v_97) ?v_12)) (or (or P34 ?v_12) ?v_31)) (or (or ?v_84 ?v_204) ?v_71)) (or (or P13 P30) ?v_70)) (or (or ?v_171 ?v_90) ?v_36)) (or (or ?v_1 ?v_23) P17)) (or (or P1 ?v_78) ?v_38)) (or (or P38 ?v_4) ?v_184)) (or (or ?v_152 ?v_107) ?v_23)) (or (or P23 ?v_65) ?v_58)) (or (or ?v_43 ?v_54) ?v_143)) (or (or P36 ?v_67) ?v_155)) (or (or ?v_199 ?v_163) ?v_36)) (or (or ?v_68 ?v_113) P5)) (or (or ?v_134 P20) P7)))))))))))))))))))))))))))))))
(check-sat)
(exit)
